p tw 155 32551 2 
1 3 
1 4 
1 5 
1 6 
1 7 
1 8 
1 9 
1 10 
1 11 
1 12 
1 13 
1 14 
1 15 
1 16 
1 17 
1 18 
1 19 
1 20 
1 21 
1 22 
1 23 
1 24 
1 25 
1 26 
1 27 
1 28 
1 29 
1 36 
1 47 
1 63 
1 75 
1 85 
1 94 
1 98 
1 117 
1 127 
1 135 
1 136 
1 146 
1 148 
1 155 
2 3 
2 4 
2 5 
2 6 
2 7 
2 8 
2 9 
2 10 
2 11 
2 12 
2 13 
2 14 
2 15 
2 16 
2 18 
2 30 
2 31 
2 32 
2 33 
2 34 
2 35 
2 36 
2 37 
2 38 
2 39 
2 40 
2 41 
2 42 
2 54 
2 74 
2 77 
2 90 
2 103 
2 116 
2 122 
2 124 
2 137 
2 141 
2 146 
2 149 
2 154 
3 4 
3 5 
3 6 
3 7 
3 8 
3 9 
3 10 
3 11 
3 12 
3 13 
3 14 
3 15 
3 17 
3 23 
3 30 
3 41 
3 43 
3 44 
3 45 
3 46 
3 47 
3 48 
3 49 
3 50 
3 51 
3 52 
3 53 
3 54 
3 65 
3 73 
3 85 
3 95 
3 101 
3 111 
3 114 
3 129 
3 130 
3 142 
3 149 
3 151 
4 5 
4 6 
4 7 
4 8 
4 9 
4 10 
4 11 
4 12 
4 13 
4 14 
4 15 
4 18 
4 26 
4 31 
4 42 
4 43 
4 53 
4 55 
4 56 
4 57 
4 58 
4 59 
4 60 
4 61 
4 62 
4 63 
4 64 
4 65 
4 70 
4 84 
4 95 
4 96 
4 117 
4 118 
4 128 
4 138 
4 150 
4 153 
4 154 
5 6 
5 7 
5 8 
5 9 
5 10 
5 11 
5 12 
5 13 
5 14 
5 15 
5 19 
5 20 
5 32 
5 34 
5 44 
5 49 
5 55 
5 59 
5 66 
5 67 
5 68 
5 69 
5 70 
5 71 
5 72 
5 73 
5 74 
5 75 
5 80 
5 99 
5 112 
5 123 
5 124 
5 125 
5 126 
5 127 
5 128 
5 129 
6 7 
6 8 
6 9 
6 10 
6 11 
6 12 
6 13 
6 14 
6 15 
6 19 
6 27 
6 31 
6 39 
6 45 
6 53 
6 64 
6 74 
6 76 
6 77 
6 78 
6 79 
6 80 
6 81 
6 82 
6 83 
6 84 
6 85 
6 86 
6 91 
6 99 
6 107 
6 115 
6 121 
6 133 
6 142 
6 147 
6 155 
7 8 
7 9 
7 10 
7 11 
7 12 
7 13 
7 14 
7 15 
7 20 
7 21 
7 33 
7 34 
7 45 
7 47 
7 55 
7 56 
7 66 
7 77 
7 87 
7 88 
7 89 
7 90 
7 91 
7 92 
7 93 
7 94 
7 95 
7 96 
7 104 
7 105 
7 106 
7 107 
7 108 
7 109 
7 110 
7 111 
8 9 
8 10 
8 11 
8 12 
8 13 
8 14 
8 15 
8 16 
8 24 
8 36 
8 46 
8 50 
8 57 
8 60 
8 67 
8 70 
8 76 
8 79 
8 87 
8 90 
8 96 
8 97 
8 98 
8 99 
8 100 
8 101 
8 102 
8 103 
8 105 
8 113 
8 123 
8 130 
8 131 
8 132 
8 133 
9 10 
9 11 
9 12 
9 13 
9 14 
9 15 
9 22 
9 28 
9 30 
9 35 
9 44 
9 58 
9 63 
9 68 
9 78 
9 83 
9 88 
9 93 
9 97 
9 100 
9 104 
9 110 
9 112 
9 113 
9 114 
9 115 
9 116 
9 117 
9 129 
9 132 
9 139 
9 147 
9 152 
9 154 
10 11 
10 12 
10 13 
10 14 
10 15 
10 23 
10 26 
10 35 
10 38 
10 46 
10 48 
10 59 
10 62 
10 69 
10 71 
10 79 
10 83 
10 88 
10 89 
10 98 
10 104 
10 105 
10 118 
10 119 
10 120 
10 121 
10 122 
10 126 
10 136 
10 140 
10 141 
10 142 
10 143 
11 12 
11 13 
11 14 
11 15 
11 17 
11 25 
11 32 
11 37 
11 51 
11 60 
11 61 
11 71 
11 81 
11 82 
11 91 
11 92 
11 100 
11 101 
11 106 
11 107 
11 113 
11 114 
11 118 
11 119 
11 124 
11 125 
11 134 
11 135 
11 136 
11 137 
11 138 
11 139 
12 13 
12 14 
12 15 
12 21 
12 25 
12 33 
12 37 
12 50 
12 52 
12 57 
12 62 
12 69 
12 72 
12 82 
12 84 
12 93 
12 102 
12 108 
12 112 
12 115 
12 120 
12 125 
12 130 
12 140 
12 144 
12 145 
12 146 
12 147 
12 148 
12 149 
12 150 
13 14 
13 15 
13 24 
13 28 
13 39 
13 42 
13 52 
13 54 
13 56 
13 64 
13 67 
13 75 
13 81 
13 86 
13 92 
13 97 
13 109 
13 111 
13 116 
13 119 
13 120 
13 123 
13 127 
13 134 
13 140 
13 143 
13 145 
13 151 
13 152 
13 153 
14 15 
14 22 
14 29 
14 38 
14 40 
14 43 
14 49 
14 65 
14 66 
14 72 
14 76 
14 78 
14 94 
14 102 
14 106 
14 110 
14 121 
14 122 
14 128 
14 131 
14 133 
14 134 
14 137 
14 139 
14 143 
14 144 
14 148 
14 151 
14 153 
15 27 
15 29 
15 40 
15 41 
15 48 
15 51 
15 58 
15 61 
15 68 
15 73 
15 80 
15 86 
15 87 
15 89 
15 103 
15 108 
15 109 
15 126 
15 131 
15 132 
15 135 
15 138 
15 141 
15 144 
15 145 
15 150 
15 152 
15 155 
16 17 
16 18 
16 19 
16 20 
16 21 
16 22 
16 23 
16 24 
16 25 
16 26 
16 27 
16 28 
16 29 
16 30 
16 31 
16 32 
16 33 
16 34 
16 35 
16 36 
16 37 
16 38 
16 39 
16 40 
16 41 
16 42 
16 46 
16 57 
16 67 
16 76 
16 87 
16 96 
16 97 
16 98 
16 99 
16 100 
16 101 
16 102 
16 103 
17 18 
17 19 
17 20 
17 21 
17 22 
17 23 
17 24 
17 25 
17 26 
17 27 
17 28 
17 29 
17 30 
17 32 
17 43 
17 44 
17 45 
17 46 
17 47 
17 48 
17 49 
17 50 
17 51 
17 52 
17 53 
17 54 
17 61 
17 82 
17 92 
17 101 
17 107 
17 113 
17 119 
17 125 
17 136 
17 137 
17 138 
17 139 
18 19 
18 20 
18 21 
18 22 
18 23 
18 24 
18 25 
18 26 
18 27 
18 28 
18 29 
18 31 
18 43 
18 54 
18 55 
18 56 
18 57 
18 58 
18 59 
18 60 
18 61 
18 62 
18 63 
18 64 
18 65 
18 74 
18 77 
18 90 
18 103 
18 116 
18 122 
18 124 
18 137 
18 141 
18 146 
18 149 
18 154 
19 20 
19 21 
19 22 
19 23 
19 24 
19 25 
19 26 
19 27 
19 28 
19 29 
19 31 
19 32 
19 44 
19 45 
19 55 
19 66 
19 67 
19 68 
19 69 
19 70 
19 71 
19 72 
19 73 
19 74 
19 75 
19 76 
19 77 
19 78 
19 79 
19 80 
19 81 
19 82 
19 83 
19 84 
19 85 
19 86 
20 21 
20 22 
20 23 
20 24 
20 25 
20 26 
20 27 
20 28 
20 29 
20 33 
20 34 
20 45 
20 49 
20 56 
20 59 
20 66 
20 80 
20 87 
20 88 
20 89 
20 90 
20 91 
20 92 
20 93 
20 94 
20 95 
20 99 
20 112 
20 123 
20 124 
20 125 
20 126 
20 127 
20 128 
20 129 
21 22 
21 23 
21 24 
21 25 
21 26 
21 27 
21 28 
21 29 
21 34 
21 37 
21 47 
21 52 
21 55 
21 62 
21 69 
21 77 
21 84 
21 93 
21 96 
21 102 
21 104 
21 105 
21 106 
21 107 
21 108 
21 109 
21 110 
21 111 
21 115 
21 125 
21 130 
21 144 
21 145 
21 146 
22 23 
22 24 
22 25 
22 26 
22 27 
22 28 
22 29 
22 30 
22 38 
22 43 
22 58 
22 68 
22 72 
22 76 
22 78 
22 88 
22 94 
22 97 
22 104 
22 110 
22 112 
22 113 
22 114 
22 115 
22 116 
22 117 
22 121 
22 128 
22 131 
22 134 
22 137 
22 144 
22 151 
23 24 
23 25 
23 26 
23 27 
23 28 
23 29 
23 35 
23 41 
23 48 
23 59 
23 65 
23 69 
23 73 
23 79 
23 85 
23 89 
23 95 
23 98 
23 101 
23 104 
23 111 
23 114 
23 118 
23 119 
23 120 
23 121 
23 122 
23 129 
23 130 
23 142 
23 149 
23 151 
24 25 
24 26 
24 27 
24 28 
24 29 
24 36 
24 39 
24 50 
24 52 
24 56 
24 60 
24 67 
24 70 
24 79 
24 81 
24 90 
24 105 
24 109 
24 113 
24 116 
24 119 
24 123 
24 127 
24 130 
24 131 
24 132 
24 133 
24 140 
24 151 
24 152 
24 153 
25 26 
25 27 
25 28 
25 29 
25 33 
25 37 
25 50 
25 51 
25 57 
25 60 
25 71 
25 72 
25 81 
25 82 
25 91 
25 100 
25 106 
25 108 
25 112 
25 114 
25 118 
25 120 
25 124 
25 134 
25 135 
25 140 
25 147 
25 148 
25 149 
25 150 
26 27 
26 28 
26 29 
26 38 
26 42 
26 46 
26 53 
26 62 
26 70 
26 71 
26 83 
26 84 
26 88 
26 95 
26 96 
26 105 
26 117 
26 118 
26 126 
26 128 
26 136 
26 138 
26 140 
26 141 
26 142 
26 143 
26 150 
26 153 
26 154 
27 28 
27 29 
27 39 
27 40 
27 48 
27 53 
27 58 
27 64 
27 73 
27 74 
27 80 
27 87 
27 91 
27 99 
27 107 
27 108 
27 115 
27 121 
27 131 
27 133 
27 135 
27 138 
27 141 
27 142 
27 145 
27 147 
27 152 
27 155 
28 29 
28 35 
28 42 
28 44 
28 54 
28 63 
28 64 
28 75 
28 83 
28 86 
28 92 
28 93 
28 97 
28 100 
28 110 
28 111 
28 120 
28 123 
28 129 
28 132 
28 134 
28 139 
28 143 
28 145 
28 147 
28 152 
28 154 
29 40 
29 41 
29 49 
29 51 
29 61 
29 65 
29 66 
29 68 
29 78 
29 86 
29 89 
29 102 
29 103 
29 106 
29 109 
29 122 
29 126 
29 132 
29 133 
29 139 
29 143 
29 144 
29 148 
29 150 
29 153 
29 155 
30 31 
30 32 
30 33 
30 34 
30 35 
30 36 
30 37 
30 38 
30 39 
30 40 
30 41 
30 42 
30 43 
30 44 
30 45 
30 46 
30 47 
30 48 
30 49 
30 50 
30 51 
30 52 
30 53 
30 54 
30 58 
30 68 
30 78 
30 88 
30 97 
30 104 
30 112 
30 113 
30 114 
30 115 
30 116 
30 117 
31 32 
31 33 
31 34 
31 35 
31 36 
31 37 
31 38 
31 39 
31 40 
31 41 
31 42 
31 43 
31 45 
31 55 
31 56 
31 57 
31 58 
31 59 
31 60 
31 61 
31 62 
31 63 
31 64 
31 65 
31 76 
31 77 
31 78 
31 79 
31 80 
31 81 
31 82 
31 83 
31 84 
31 85 
31 86 
32 33 
32 34 
32 35 
32 36 
32 37 
32 38 
32 39 
32 40 
32 41 
32 42 
32 44 
32 55 
32 61 
32 66 
32 67 
32 68 
32 69 
32 70 
32 71 
32 72 
32 73 
32 74 
32 75 
32 82 
32 92 
32 101 
32 107 
32 113 
32 119 
32 125 
32 136 
32 137 
32 138 
32 139 
33 34 
33 35 
33 36 
33 37 
33 38 
33 39 
33 40 
33 41 
33 42 
33 45 
33 50 
33 56 
33 57 
33 66 
33 72 
33 82 
33 87 
33 88 
33 89 
33 90 
33 91 
33 92 
33 93 
33 94 
33 95 
33 108 
33 112 
33 120 
33 140 
33 147 
33 148 
33 149 
33 150 
34 35 
34 36 
34 37 
34 38 
34 39 
34 40 
34 41 
34 42 
34 47 
34 49 
34 55 
34 59 
34 77 
34 80 
34 96 
34 99 
34 104 
34 105 
34 106 
34 107 
34 108 
34 109 
34 110 
34 111 
34 112 
34 123 
34 124 
34 125 
34 126 
34 127 
34 128 
34 129 
35 36 
35 37 
35 38 
35 39 
35 40 
35 41 
35 42 
35 44 
35 48 
35 59 
35 63 
35 69 
35 79 
35 83 
35 89 
35 93 
35 98 
35 100 
35 104 
35 110 
35 118 
35 119 
35 120 
35 121 
35 122 
35 129 
35 132 
35 139 
35 147 
35 152 
35 154 
36 37 
36 38 
36 39 
36 40 
36 41 
36 42 
36 47 
36 50 
36 60 
36 63 
36 70 
36 75 
36 79 
36 85 
36 90 
36 94 
36 98 
36 105 
36 113 
36 117 
36 123 
36 127 
36 130 
36 131 
36 132 
36 133 
36 135 
36 136 
36 146 
36 148 
36 155 
37 38 
37 39 
37 40 
37 41 
37 42 
37 51 
37 52 
37 60 
37 62 
37 69 
37 71 
37 81 
37 84 
37 91 
37 93 
37 100 
37 102 
37 106 
37 114 
37 115 
37 118 
37 124 
37 125 
37 130 
37 134 
37 135 
37 144 
37 145 
37 146 
38 39 
38 40 
38 41 
38 42 
38 43 
38 46 
38 62 
38 71 
38 72 
38 76 
38 83 
38 88 
38 94 
38 105 
38 110 
38 121 
38 126 
38 128 
38 131 
38 134 
38 136 
38 137 
38 140 
38 141 
38 142 
38 143 
38 144 
38 151 
39 40 
39 41 
39 42 
39 52 
39 53 
39 56 
39 64 
39 67 
39 74 
39 81 
39 91 
39 99 
39 107 
39 109 
39 115 
39 116 
39 119 
39 121 
39 127 
39 133 
39 140 
39 142 
39 147 
39 151 
39 152 
39 153 
39 155 
40 41 
40 42 
40 48 
40 49 
40 58 
40 65 
40 66 
40 73 
40 78 
40 80 
40 87 
40 102 
40 106 
40 108 
40 122 
40 131 
40 133 
40 135 
40 138 
40 139 
40 141 
40 143 
40 145 
40 148 
40 152 
40 153 
41 42 
41 51 
41 61 
41 65 
41 68 
41 73 
41 85 
41 86 
41 89 
41 95 
41 101 
41 103 
41 109 
41 111 
41 114 
41 126 
41 129 
41 130 
41 132 
41 142 
41 144 
41 149 
41 150 
41 151 
41 155 
42 53 
42 54 
42 64 
42 70 
42 75 
42 84 
42 86 
42 92 
42 95 
42 96 
42 97 
42 111 
42 117 
42 118 
42 120 
42 123 
42 128 
42 134 
42 138 
42 143 
42 145 
42 150 
42 153 
42 154 
43 44 
43 45 
43 46 
43 47 
43 48 
43 49 
43 50 
43 51 
43 52 
43 53 
43 54 
43 55 
43 56 
43 57 
43 58 
43 59 
43 60 
43 61 
43 62 
43 63 
43 64 
43 65 
43 72 
43 76 
43 94 
43 110 
43 121 
43 128 
43 131 
43 134 
43 137 
43 144 
43 151 
44 45 
44 46 
44 47 
44 48 
44 49 
44 50 
44 51 
44 52 
44 53 
44 54 
44 55 
44 63 
44 66 
44 67 
44 68 
44 69 
44 70 
44 71 
44 72 
44 73 
44 74 
44 75 
44 83 
44 93 
44 100 
44 110 
44 129 
44 132 
44 139 
44 147 
44 152 
44 154 
45 46 
45 47 
45 48 
45 49 
45 50 
45 51 
45 52 
45 53 
45 54 
45 56 
45 66 
45 76 
45 77 
45 78 
45 79 
45 80 
45 81 
45 82 
45 83 
45 84 
45 85 
45 86 
45 87 
45 88 
45 89 
45 90 
45 91 
45 92 
45 93 
45 94 
45 95 
46 47 
46 48 
46 49 
46 50 
46 51 
46 52 
46 53 
46 54 
46 57 
46 62 
46 67 
46 71 
46 76 
46 83 
46 87 
46 88 
46 96 
46 97 
46 98 
46 99 
46 100 
46 101 
46 102 
46 103 
46 105 
46 126 
46 136 
46 140 
46 141 
46 142 
46 143 
47 48 
47 49 
47 50 
47 51 
47 52 
47 53 
47 54 
47 55 
47 63 
47 75 
47 77 
47 85 
47 94 
47 96 
47 98 
47 104 
47 105 
47 106 
47 107 
47 108 
47 109 
47 110 
47 111 
47 117 
47 127 
47 135 
47 136 
47 146 
47 148 
47 155 
48 49 
48 50 
48 51 
48 52 
48 53 
48 54 
48 58 
48 59 
48 69 
48 73 
48 79 
48 80 
48 87 
48 89 
48 98 
48 104 
48 108 
48 118 
48 119 
48 120 
48 121 
48 122 
48 131 
48 135 
48 138 
48 141 
48 145 
48 152 
49 50 
49 51 
49 52 
49 53 
49 54 
49 59 
49 65 
49 66 
49 78 
49 80 
49 99 
49 102 
49 106 
49 112 
49 122 
49 123 
49 124 
49 125 
49 126 
49 127 
49 128 
49 129 
49 133 
49 139 
49 143 
49 148 
49 153 
50 51 
50 52 
50 53 
50 54 
50 57 
50 60 
50 70 
50 72 
50 79 
50 82 
50 90 
50 105 
50 108 
50 112 
50 113 
50 120 
50 123 
50 130 
50 131 
50 132 
50 133 
50 140 
50 147 
50 148 
50 149 
50 150 
51 52 
51 53 
51 54 
51 60 
51 61 
51 68 
51 71 
51 81 
51 86 
51 89 
51 91 
51 100 
51 103 
51 106 
51 109 
51 114 
51 118 
51 124 
51 126 
51 132 
51 134 
51 135 
51 144 
51 150 
51 155 
52 53 
52 54 
52 56 
52 62 
52 67 
52 69 
52 81 
52 84 
52 93 
52 102 
52 109 
52 115 
52 116 
52 119 
52 125 
52 127 
52 130 
52 140 
52 144 
52 145 
52 146 
52 151 
52 152 
52 153 
53 54 
53 64 
53 70 
53 74 
53 84 
53 91 
53 95 
53 96 
53 99 
53 107 
53 115 
53 117 
53 118 
53 121 
53 128 
53 133 
53 138 
53 142 
53 147 
53 150 
53 153 
53 154 
53 155 
54 64 
54 74 
54 75 
54 77 
54 86 
54 90 
54 92 
54 97 
54 103 
54 111 
54 116 
54 120 
54 122 
54 123 
54 124 
54 134 
54 137 
54 141 
54 143 
54 145 
54 146 
54 149 
54 154 
55 56 
55 57 
55 58 
55 59 
55 60 
55 61 
55 62 
55 63 
55 64 
55 65 
55 66 
55 67 
55 68 
55 69 
55 70 
55 71 
55 72 
55 73 
55 74 
55 75 
55 77 
55 96 
55 104 
55 105 
55 106 
55 107 
55 108 
55 109 
55 110 
55 111 
56 57 
56 58 
56 59 
56 60 
56 61 
56 62 
56 63 
56 64 
56 65 
56 66 
56 67 
56 81 
56 87 
56 88 
56 89 
56 90 
56 91 
56 92 
56 93 
56 94 
56 95 
56 109 
56 116 
56 119 
56 127 
56 140 
56 151 
56 152 
56 153 
57 58 
57 59 
57 60 
57 61 
57 62 
57 63 
57 64 
57 65 
57 67 
57 72 
57 76 
57 82 
57 87 
57 96 
57 97 
57 98 
57 99 
57 100 
57 101 
57 102 
57 103 
57 108 
57 112 
57 120 
57 140 
57 147 
57 148 
57 149 
57 150 
58 59 
58 60 
58 61 
58 62 
58 63 
58 64 
58 65 
58 68 
58 73 
58 78 
58 80 
58 87 
58 88 
58 97 
58 104 
58 108 
58 112 
58 113 
58 114 
58 115 
58 116 
58 117 
58 131 
58 135 
58 138 
58 141 
58 145 
58 152 
59 60 
59 61 
59 62 
59 63 
59 64 
59 65 
59 69 
59 79 
59 80 
59 89 
59 98 
59 99 
59 104 
59 112 
59 118 
59 119 
59 120 
59 121 
59 122 
59 123 
59 124 
59 125 
59 126 
59 127 
59 128 
59 129 
60 61 
60 62 
60 63 
60 64 
60 65 
60 70 
60 71 
60 79 
60 81 
60 90 
60 91 
60 100 
60 105 
60 106 
60 113 
60 114 
60 118 
60 123 
60 124 
60 130 
60 131 
60 132 
60 133 
60 134 
60 135 
61 62 
61 63 
61 64 
61 65 
61 68 
61 82 
61 86 
61 89 
61 92 
61 101 
61 103 
61 107 
61 109 
61 113 
61 119 
61 125 
61 126 
61 132 
61 136 
61 137 
61 138 
61 139 
61 144 
61 150 
61 155 
62 63 
62 64 
62 65 
62 69 
62 71 
62 83 
62 84 
62 88 
62 93 
62 102 
62 105 
62 115 
62 125 
62 126 
62 130 
62 136 
62 140 
62 141 
62 142 
62 143 
62 144 
62 145 
62 146 
63 64 
63 65 
63 75 
63 83 
63 85 
63 93 
63 94 
63 98 
63 100 
63 110 
63 117 
63 127 
63 129 
63 132 
63 135 
63 136 
63 139 
63 146 
63 147 
63 148 
63 152 
63 154 
63 155 
64 65 
64 74 
64 75 
64 86 
64 91 
64 92 
64 97 
64 99 
64 107 
64 111 
64 115 
64 120 
64 121 
64 123 
64 133 
64 134 
64 142 
64 143 
64 145 
64 147 
64 155 
65 66 
65 73 
65 78 
65 85 
65 95 
65 101 
65 102 
65 106 
65 111 
65 114 
65 122 
65 129 
65 130 
65 133 
65 139 
65 142 
65 143 
65 148 
65 149 
65 151 
65 153 
66 67 
66 68 
66 69 
66 70 
66 71 
66 72 
66 73 
66 74 
66 75 
66 78 
66 87 
66 88 
66 89 
66 90 
66 91 
66 92 
66 93 
66 94 
66 95 
66 102 
66 106 
66 122 
66 133 
66 139 
66 143 
66 148 
66 153 
67 68 
67 69 
67 70 
67 71 
67 72 
67 73 
67 74 
67 75 
67 76 
67 81 
67 87 
67 96 
67 97 
67 98 
67 99 
67 100 
67 101 
67 102 
67 103 
67 109 
67 116 
67 119 
67 127 
67 140 
67 151 
67 152 
67 153 
68 69 
68 70 
68 71 
68 72 
68 73 
68 74 
68 75 
68 78 
68 86 
68 88 
68 89 
68 97 
68 103 
68 104 
68 109 
68 112 
68 113 
68 114 
68 115 
68 116 
68 117 
68 126 
68 132 
68 144 
68 150 
68 155 
69 70 
69 71 
69 72 
69 73 
69 74 
69 75 
69 79 
69 84 
69 89 
69 93 
69 98 
69 102 
69 104 
69 115 
69 118 
69 119 
69 120 
69 121 
69 122 
69 125 
69 130 
69 144 
69 145 
69 146 
70 71 
70 72 
70 73 
70 74 
70 75 
70 79 
70 84 
70 90 
70 95 
70 96 
70 105 
70 113 
70 117 
70 118 
70 123 
70 128 
70 130 
70 131 
70 132 
70 133 
70 138 
70 150 
70 153 
70 154 
71 72 
71 73 
71 74 
71 75 
71 81 
71 83 
71 88 
71 91 
71 100 
71 105 
71 106 
71 114 
71 118 
71 124 
71 126 
71 134 
71 135 
71 136 
71 140 
71 141 
71 142 
71 143 
72 73 
72 74 
72 75 
72 76 
72 82 
72 94 
72 108 
72 110 
72 112 
72 120 
72 121 
72 128 
72 131 
72 134 
72 137 
72 140 
72 144 
72 147 
72 148 
72 149 
72 150 
72 151 
73 74 
73 75 
73 80 
73 85 
73 87 
73 95 
73 101 
73 108 
73 111 
73 114 
73 129 
73 130 
73 131 
73 135 
73 138 
73 141 
73 142 
73 145 
73 149 
73 151 
73 152 
74 75 
74 77 
74 90 
74 91 
74 99 
74 103 
74 107 
74 115 
74 116 
74 121 
74 122 
74 124 
74 133 
74 137 
74 141 
74 142 
74 146 
74 147 
74 149 
74 154 
74 155 
75 85 
75 86 
75 92 
75 94 
75 97 
75 98 
75 111 
75 117 
75 120 
75 123 
75 127 
75 134 
75 135 
75 136 
75 143 
75 145 
75 146 
75 148 
75 155 
76 77 
76 78 
76 79 
76 80 
76 81 
76 82 
76 83 
76 84 
76 85 
76 86 
76 87 
76 94 
76 96 
76 97 
76 98 
76 99 
76 100 
76 101 
76 102 
76 103 
76 110 
76 121 
76 128 
76 131 
76 134 
76 137 
76 144 
76 151 
77 78 
77 79 
77 80 
77 81 
77 82 
77 83 
77 84 
77 85 
77 86 
77 90 
77 96 
77 103 
77 104 
77 105 
77 106 
77 107 
77 108 
77 109 
77 110 
77 111 
77 116 
77 122 
77 124 
77 137 
77 141 
77 146 
77 149 
77 154 
78 79 
78 80 
78 81 
78 82 
78 83 
78 84 
78 85 
78 86 
78 88 
78 97 
78 102 
78 104 
78 106 
78 112 
78 113 
78 114 
78 115 
78 116 
78 117 
78 122 
78 133 
78 139 
78 143 
78 148 
78 153 
79 80 
79 81 
79 82 
79 83 
79 84 
79 85 
79 86 
79 89 
79 90 
79 98 
79 104 
79 105 
79 113 
79 118 
79 119 
79 120 
79 121 
79 122 
79 123 
79 130 
79 131 
79 132 
79 133 
80 81 
80 82 
80 83 
80 84 
80 85 
80 86 
80 87 
80 99 
80 108 
80 112 
80 123 
80 124 
80 125 
80 126 
80 127 
80 128 
80 129 
80 131 
80 135 
80 138 
80 141 
80 145 
80 152 
81 82 
81 83 
81 84 
81 85 
81 86 
81 91 
81 100 
81 106 
81 109 
81 114 
81 116 
81 118 
81 119 
81 124 
81 127 
81 134 
81 135 
81 140 
81 151 
81 152 
81 153 
82 83 
82 84 
82 85 
82 86 
82 92 
82 101 
82 107 
82 108 
82 112 
82 113 
82 119 
82 120 
82 125 
82 136 
82 137 
82 138 
82 139 
82 140 
82 147 
82 148 
82 149 
82 150 
83 84 
83 85 
83 86 
83 88 
83 93 
83 100 
83 105 
83 110 
83 126 
83 129 
83 132 
83 136 
83 139 
83 140 
83 141 
83 142 
83 143 
83 147 
83 152 
83 154 
84 85 
84 86 
84 93 
84 95 
84 96 
84 102 
84 115 
84 117 
84 118 
84 125 
84 128 
84 130 
84 138 
84 144 
84 145 
84 146 
84 150 
84 153 
84 154 
85 86 
85 94 
85 95 
85 98 
85 101 
85 111 
85 114 
85 117 
85 127 
85 129 
85 130 
85 135 
85 136 
85 142 
85 146 
85 148 
85 149 
85 151 
85 155 
86 89 
86 92 
86 97 
86 103 
86 109 
86 111 
86 120 
86 123 
86 126 
86 132 
86 134 
86 143 
86 144 
86 145 
86 150 
86 155 
87 88 
87 89 
87 90 
87 91 
87 92 
87 93 
87 94 
87 95 
87 96 
87 97 
87 98 
87 99 
87 100 
87 101 
87 102 
87 103 
87 108 
87 131 
87 135 
87 138 
87 141 
87 145 
87 152 
88 89 
88 90 
88 91 
88 92 
88 93 
88 94 
88 95 
88 97 
88 104 
88 105 
88 112 
88 113 
88 114 
88 115 
88 116 
88 117 
88 126 
88 136 
88 140 
88 141 
88 142 
88 143 
89 90 
89 91 
89 92 
89 93 
89 94 
89 95 
89 98 
89 103 
89 104 
89 109 
89 118 
89 119 
89 120 
89 121 
89 122 
89 126 
89 132 
89 144 
89 150 
89 155 
90 91 
90 92 
90 93 
90 94 
90 95 
90 103 
90 105 
90 113 
90 116 
90 122 
90 123 
90 124 
90 130 
90 131 
90 132 
90 133 
90 137 
90 141 
90 146 
90 149 
90 154 
91 92 
91 93 
91 94 
91 95 
91 99 
91 100 
91 106 
91 107 
91 114 
91 115 
91 118 
91 121 
91 124 
91 133 
91 134 
91 135 
91 142 
91 147 
91 155 
92 93 
92 94 
92 95 
92 97 
92 101 
92 107 
92 111 
92 113 
92 119 
92 120 
92 123 
92 125 
92 134 
92 136 
92 137 
92 138 
92 139 
92 143 
92 145 
93 94 
93 95 
93 100 
93 102 
93 110 
93 115 
93 125 
93 129 
93 130 
93 132 
93 139 
93 144 
93 145 
93 146 
93 147 
93 152 
93 154 
94 95 
94 98 
94 110 
94 117 
94 121 
94 127 
94 128 
94 131 
94 134 
94 135 
94 136 
94 137 
94 144 
94 146 
94 148 
94 151 
94 155 
95 96 
95 101 
95 111 
95 114 
95 117 
95 118 
95 128 
95 129 
95 130 
95 138 
95 142 
95 149 
95 150 
95 151 
95 153 
95 154 
96 97 
96 98 
96 99 
96 100 
96 101 
96 102 
96 103 
96 104 
96 105 
96 106 
96 107 
96 108 
96 109 
96 110 
96 111 
96 117 
96 118 
96 128 
96 138 
96 150 
96 153 
96 154 
97 98 
97 99 
97 100 
97 101 
97 102 
97 103 
97 104 
97 111 
97 112 
97 113 
97 114 
97 115 
97 116 
97 117 
97 120 
97 123 
97 134 
97 143 
97 145 
98 99 
98 100 
98 101 
98 102 
98 103 
98 104 
98 117 
98 118 
98 119 
98 120 
98 121 
98 122 
98 127 
98 135 
98 136 
98 146 
98 148 
98 155 
99 100 
99 101 
99 102 
99 103 
99 107 
99 112 
99 115 
99 121 
99 123 
99 124 
99 125 
99 126 
99 127 
99 128 
99 129 
99 133 
99 142 
99 147 
99 155 
100 101 
100 102 
100 103 
100 106 
100 110 
100 114 
100 118 
100 124 
100 129 
100 132 
100 134 
100 135 
100 139 
100 147 
100 152 
100 154 
101 102 
101 103 
101 107 
101 111 
101 113 
101 114 
101 119 
101 125 
101 129 
101 130 
101 136 
101 137 
101 138 
101 139 
101 142 
101 149 
101 151 
102 103 
102 106 
102 115 
102 122 
102 125 
102 130 
102 133 
102 139 
102 143 
102 144 
102 145 
102 146 
102 148 
102 153 
103 109 
103 116 
103 122 
103 124 
103 126 
103 132 
103 137 
103 141 
103 144 
103 146 
103 149 
103 150 
103 154 
103 155 
104 105 
104 106 
104 107 
104 108 
104 109 
104 110 
104 111 
104 112 
104 113 
104 114 
104 115 
104 116 
104 117 
104 118 
104 119 
104 120 
104 121 
104 122 
105 106 
105 107 
105 108 
105 109 
105 110 
105 111 
105 113 
105 123 
105 126 
105 130 
105 131 
105 132 
105 133 
105 136 
105 140 
105 141 
105 142 
105 143 
106 107 
106 108 
106 109 
106 110 
106 111 
106 114 
106 118 
106 122 
106 124 
106 133 
106 134 
106 135 
106 139 
106 143 
106 148 
106 153 
107 108 
107 109 
107 110 
107 111 
107 113 
107 115 
107 119 
107 121 
107 125 
107 133 
107 136 
107 137 
107 138 
107 139 
107 142 
107 147 
107 155 
108 109 
108 110 
108 111 
108 112 
108 120 
108 131 
108 135 
108 138 
108 140 
108 141 
108 145 
108 147 
108 148 
108 149 
108 150 
108 152 
109 110 
109 111 
109 116 
109 119 
109 126 
109 127 
109 132 
109 140 
109 144 
109 150 
109 151 
109 152 
109 153 
109 155 
110 111 
110 121 
110 128 
110 129 
110 131 
110 132 
110 134 
110 137 
110 139 
110 144 
110 147 
110 151 
110 152 
110 154 
111 114 
111 120 
111 123 
111 129 
111 130 
111 134 
111 142 
111 143 
111 145 
111 149 
111 151 
112 113 
112 114 
112 115 
112 116 
112 117 
112 120 
112 123 
112 124 
112 125 
112 126 
112 127 
112 128 
112 129 
112 140 
112 147 
112 148 
112 149 
112 150 
113 114 
113 115 
113 116 
113 117 
113 119 
113 123 
113 125 
113 130 
113 131 
113 132 
113 133 
113 136 
113 137 
113 138 
113 139 
114 115 
114 116 
114 117 
114 118 
114 124 
114 129 
114 130 
114 134 
114 135 
114 142 
114 149 
114 151 
115 116 
115 117 
115 121 
115 125 
115 130 
115 133 
115 142 
115 144 
115 145 
115 146 
115 147 
115 155 
116 117 
116 119 
116 122 
116 124 
116 127 
116 137 
116 140 
116 141 
116 146 
116 149 
116 151 
116 152 
116 153 
116 154 
117 118 
117 127 
117 128 
117 135 
117 136 
117 138 
117 146 
117 148 
117 150 
117 153 
117 154 
117 155 
118 119 
118 120 
118 121 
118 122 
118 124 
118 128 
118 134 
118 135 
118 138 
118 150 
118 153 
118 154 
119 120 
119 121 
119 122 
119 125 
119 127 
119 136 
119 137 
119 138 
119 139 
119 140 
119 151 
119 152 
119 153 
120 121 
120 122 
120 123 
120 134 
120 140 
120 143 
120 145 
120 147 
120 148 
120 149 
120 150 
121 122 
121 128 
121 131 
121 133 
121 134 
121 137 
121 142 
121 144 
121 147 
121 151 
121 155 
122 124 
122 133 
122 137 
122 139 
122 141 
122 143 
122 146 
122 148 
122 149 
122 153 
122 154 
123 124 
123 125 
123 126 
123 127 
123 128 
123 129 
123 130 
123 131 
123 132 
123 133 
123 134 
123 143 
123 145 
124 125 
124 126 
124 127 
124 128 
124 129 
124 134 
124 135 
124 137 
124 141 
124 146 
124 149 
124 154 
125 126 
125 127 
125 128 
125 129 
125 130 
125 136 
125 137 
125 138 
125 139 
125 144 
125 145 
125 146 
126 127 
126 128 
126 129 
126 132 
126 136 
126 140 
126 141 
126 142 
126 143 
126 144 
126 150 
126 155 
127 128 
127 129 
127 135 
127 136 
127 140 
127 146 
127 148 
127 151 
127 152 
127 153 
127 155 
128 129 
128 131 
128 134 
128 137 
128 138 
128 144 
128 150 
128 151 
128 153 
128 154 
129 130 
129 132 
129 139 
129 142 
129 147 
129 149 
129 151 
129 152 
129 154 
130 131 
130 132 
130 133 
130 142 
130 144 
130 145 
130 146 
130 149 
130 151 
131 132 
131 133 
131 134 
131 135 
131 137 
131 138 
131 141 
131 144 
131 145 
131 151 
131 152 
132 133 
132 139 
132 144 
132 147 
132 150 
132 152 
132 154 
132 155 
133 139 
133 142 
133 143 
133 147 
133 148 
133 153 
133 155 
134 135 
134 137 
134 143 
134 144 
134 145 
134 151 
135 136 
135 138 
135 141 
135 145 
135 146 
135 148 
135 152 
135 155 
136 137 
136 138 
136 139 
136 140 
136 141 
136 142 
136 143 
136 146 
136 148 
136 155 
137 138 
137 139 
137 141 
137 144 
137 146 
137 149 
137 151 
137 154 
138 139 
138 141 
138 145 
138 150 
138 152 
138 153 
138 154 
139 143 
139 147 
139 148 
139 152 
139 153 
139 154 
140 141 
140 142 
140 143 
140 147 
140 148 
140 149 
140 150 
140 151 
140 152 
140 153 
141 142 
141 143 
141 145 
141 146 
141 149 
141 152 
141 154 
142 143 
142 147 
142 149 
142 151 
142 155 
143 145 
143 148 
143 153 
144 145 
144 146 
144 150 
144 151 
144 155 
145 146 
145 152 
146 148 
146 149 
146 154 
146 155 
147 148 
147 149 
147 150 
147 152 
147 154 
147 155 
148 149 
148 150 
148 153 
148 155 
149 150 
149 151 
149 154 
150 153 
150 154 
150 155 
151 152 
151 153 
152 153 
152 154 
153 154 
